proyfinal/src/viki/013/experimentInOfficeAgust.take6.output/2763cbf4-94c0-4de9-a271-6e7854f2e18e.als.out
Reading from standard input... Use '--help' for help.
============================[ Problem Statistics ]=============================
|                                                                             |
|  Number of variables:         87638                                         |
|  Number of clauses:          161767                                         |
|  Parse time:                   0.04 s                                       |
|                                                                             |
============================[ Search Statistics ]==============================
| Conflicts |          ORIGINAL         |          LEARNT          | Progress |
|           |    Vars  Clauses Literals |    Limit  Clauses Lit/Cl |          |
===============================================================================
|       100 |   63267   108345   270738 |    39726      100     26 | 27.809 % |
|       250 |   63249   108271   270567 |    43699      249     21 | 27.829 % |
|       475 |   63249   108271   270567 |    48069      474     52 | 27.829 % |
|       812 |   63249   108271   270567 |    52875      811     69 | 27.829 % |
|      1318 |   63249   108271   270567 |    58163     1317     59 | 27.829 % |
|      2077 |   63249   108271   270567 |    63979     2076     63 | 27.829 % |
|      3216 |   63233   108205   270414 |    70377     3214     63 | 27.848 % |
|      4924 |   52336    76192   191554 |    77415     4112     57 | 40.282 % |
|      7486 |   51567    73232   184402 |    85157     6557     60 | 41.159 % |
|     11330 |   51312    71942   181367 |    93673     9114     55 | 41.450 % |
|     17096 |   50705    69683   175823 |   103040    13472     52 | 42.143 % |
===============================================================================
restarts              : 63
conflicts             : 17781          (8400 /sec)
decisions             : 59110          (0.00 % random) (27923 /sec)
propagations          : 24105783       (11387347 /sec)
conflict literals     : 897642         (47.18 % deleted)
Memory used           : 31.87 MB
CPU time              : 2.11689 s

UNSATISFIABLE
